22      4       
11      13      11      11      
0       0       0       0       0       4       2       3       4       5       
3       0       0       0       3       1       7       
3       5       0       0       0       1       8       
1       0       6       0       0       2       10      17      
2       0       6       0       0       1       6       
10      0       0       0       2       1       11      
8       0       6       0       0       1       10      
7       0       0       0       10      1       9       
6       0       4       0       0       1       12      
5       0       5       0       0       1       13      
10      0       0       5       0       1       18      
2       0       0       9       0       1       16      
4       4       0       0       0       1       14      
6       7       0       0       0       1       15      
9       0       0       0       10      1       19      
10      6       0       0       0       1       21      
7       10      0       0       0       1       20      
1       4       0       0       0       1       22      
9       0       3       0       0       1       22      
3       0       10      0       0       1       22      
7       1       0       0       0       1       22      
0       0       0       0       0       0       
